data/benchmarks/bayes/75-12-3-q.cnf
p cnf 672 685
c weights 0.383504 0.6164959999999999 1 1 1 1 1 1 1 1 1 1 1 1 1 1 1 1 1 1 1 1 1 1 1 1 1 1 1 1 1 1 1 1 1 1 1 1 1 1 1 1 1 1 1 1 1 1 1 1 1 1 1 1 1 1 1 1 1 1 1 1 1 1 1 1 1 1 1 1 1 1 1 1 1 1 1 1 1 1 1 1 1 1 1 1 1 1 1 1 1 1 1 1 1 1 1 1 1 1 1 1 1 1 1 1 1 1 1 1 1 1 1 1 1 1 1 1 1 1 1 1 1 1 1 1 1 1 1 1 1 1 1 1 1 1 1 1 1 1 1 1 1 1 1 1 1 1 1 1 1 1 1 1 1 1 1 1 1 1 1 1 1 1 1 1 1 1 1 1 1 1 1 1 1 1 1 1 1 1 1 1 1 1 1 1 1 1 1 1 1 1 1 1 1 1 1 1 1 1 1 1 1 1 1 1 1 1 1 1 1 1 1 1 1 1 1 1 1 1 1 1 1 1 1 1 1 1 1 1 1 1 1 1 1 1 1 1 1 1 1 1 1 1 1 1 1 1 1 1 1 1 1 1 1 1 1 1 1 1 1 1 1 1 1 1 1 1 1 1 1 1 1 1 1 1 1 1 1 1 1 1 1 1 1 1 1 1 0.658289 0.341711 0.227483 0.772517 0.321242 0.678758 0.19781 0.80219 0.5 0.5 0.5 0.5 0.5 0.5 0.5 0.5 0.5 0.5 0.5 0.5 0.5 0.5 0.5 0.5 0.5 0.5 0.5 0.5 0.5 0.5 0.5 0.5 0.5 0.5 0.5 0.5 0.5 0.5 0.5 0.5 0.5 0.5 0.5 0.5 0.5 0.5 0.5 0.5 0.5 0.5 0.5 0.5 0.5 0.5 0.5 0.5 0.5 0.5 0.5 0.5 0.5 0.5 0.5 0.5 0.5 0.5 0.5 0.5 0.5 0.5 0.5 0.5 0.0101118 0.9898882 0.880766 0.11923399999999995 0.91249 0.08750999999999998 0.293499 0.706501 0.162333 0.8376669999999999 0.700996 0.29900400000000005 0.400477 0.599523 0.344278 0.655722 0.5 0.5 0.5 0.5 0.5 0.5 0.5 0.5 0.5 0.5 0.5 0.5 0.5 0.5 0.5 0.5 0.5 0.5 0.5 0.5 0.5 0.5 0.5 0.5 0.5 0.5 0.5 0.5 0.5 0.5 0.5 0.5 0.5 0.5 0.5 0.5 0.5 0.5 0.5 0.5 0.5 0.5 0.5 0.5 0.5 0.5 0.5 0.5 0.5 0.5 0.5 0.5 0.5 0.5 0.5 0.5 0.5 0.5 0.5 0.5 0.5 0.5 0.5 0.5 0.5 0.5 0.5 0.5 0.42892 0.57108 0.482057 0.517943 0.363302 0.636698 0.589107 0.41089299999999995 0.5 0.5 0.5 0.5 0.5 0.5 0.5 0.5 0.5 0.5 0.5 0.5 0.5 0.5 0.5 0.5 0.5 0.5 0.5 0.5 0.5 0.5 0.5 0.5 0.5 0.5 0.5 0.5 0.5 0.5 0.5 0.5 0.453752 0.5462480000000001 0.380008 0.619992 0.380064 0.619936 0.2613 0.7387 0.5 0.5 0.5 0.5 0.5 0.5 0.5 0.5 0.5 0.5 0.5 0.5 0.5 0.5 0.5 0.5 0.756624 0.24337600000000004 0.204 0.796 0.0998456 0.9001544 0.353296 0.646704 0.5 0.5 0.5 0.5 0.5 0.5 0.5 0.5 0.5 0.5 0.5 0.5 0.5 0.5 0.5 0.5 0.5 0.5 0.5 0.5 0.5 0.5 0.5 0.5 0.5 0.5 0.5 0.5 0.491566 0.508434 0.203607 0.796393 0.469176 0.530824 0.770893 0.22910699999999995 0.5 0.5 0.5 0.5 0.5 0.5 0.5 0.5 0.980067 0.01993299999999998 0.139105 0.860895 0.250277 0.7497229999999999 0.284443 0.715557 0.5 0.5 0.5 0.5 0.5 0.5 0.5 0.5 0.718799 0.28120100000000003 0.687226 0.312774 0.952552 0.047448000000000046 0.722662 0.277338 0.492598 0.507402 0.106533 0.893467 0.254073 0.745927 0.293945 0.706055 0.5 0.5 0.5 0.5 0.5 0.5 0.5 0.5 0.5 0.5 0.5 0.5 0.5 0.5 0.5 0.5 0.5 0.5 0.5 0.5 0.855569 0.14443099999999998 0.84402 0.15598 0.136099 0.863901 0.214485 0.785515 0.5 0.5 0.5 0.5 0.5 0.5 0.5 0.5 0.68188 0.31811999999999996 0.784873 0.21512699999999996 0.650207 0.349793 0.462497 0.5375030000000001 0.5 0.5 0.5 0.5 0.5 0.5 0.5 0.5 0.356927 0.643073 0.278834 0.721166 0.273222 0.7267779999999999 0.913331 0.086669 0.5 0.5 0.5 0.5 0.5 0.5 0.5 0.5 0.5 0.5 0.5 0.5 0.5 0.5 0.5 0.5 0.5 0.5 0.5 0.5 0.5 0.5 0.5 0.5 0.1405 0.8594999999999999 0.816959 0.183041 0.52344 0.47656 0.602997 0.397003 0.5 0.5 0.5 0.5 0.5 0.5 0.5 0.5 0.5 0.5 0.5 0.5 0.5 0.5 0.5 0.5 0.5 0.5 0.5 0.5 0.5 0.5 0.5 0.5 0.5 0.5 0.5 0.5 0.926601 0.07339899999999999 0.229813 0.770187 0.261856 0.738144 0.126365 0.8736349999999999 0.5 0.5 0.5 0.5 0.5 0.5 0.5 0.5 0.572174 0.42782600000000004 0.463973 0.536027 0.069841 0.930159 0.852354 0.14764600000000005 0.735687 0.264313 0.548517 0.45148299999999997 0.863415 0.13658499999999996 0.75846 0.24153999999999998 0.5 0.5 0.5 0.5 0.5 0.5 0.5 0.5 0.5 0.5 0.5 0.5 0.5 0.5 0.5 0.5 0.788684 0.21131599999999995 0.0876685 0.9123315 0.213127 0.7868729999999999 0.05054 0.94946 0.5 0.5 0.5 0.5 0.5 0.5 0.5 0.5 0.5 0.5 0.5 0.5 0.5 0.5 0.5 0.5 0.879505 0.12049500000000002 0.153424 0.846576 0.410408 0.589592 0.742919 0.257081 0.933922 0.06607799999999997 0.959431 0.040568999999999966 0.5 0.5 0.5 0.5 0.5 0.5 0.5 0.5 0.838005 0.161995 0.436024 0.563976 0.953224 0.04677600000000004 0.626689 0.37331099999999995 0.5 0.5 0.5 0.5 0.5 0.5 0.5 0.5 0.5 0.5 0.5 0.5 0.5 0.5 0.5 0.5 0.5 0.5 0.5 0.5 0.5 0.5 0.5 0.5 0.5 0.5 0.5 0.5 0.5 0.5 0.5 0.5 0.547602 0.45239799999999997 0.0148915 0.9851085 0.237521 0.762479 0.394812 0.6051880000000001 0.5 0.5 0.5 0.5 0.5 0.5 0.5 0.5 0.249564 0.750436 0.327005 0.672995 0.536735 0.46326500000000004 0.987291 0.01270899999999997 0.98498 0.015020000000000033 0.0975026 0.9024974 0.874328 0.125672 0.065217 0.934783 0.5 0.5 0.5 0.5 0.5 0.5 0.5 0.5 0.5 0.5 0.5 0.5 0.5 0.5 0.5 0.5 0.5 0.5 0.5 0.5 0.237154 0.762846 0.0913297 0.9086703 0.34429 0.65571 0.527002 0.47299800000000003 0.5 0.5 0.5 0.5 0.5 0.5 0.5 0.5 0.5 0.5 0.5 0.5 0.5 0.5 0.5 0.5 0.5 0.5 0.5 0.5 0.5 0.5 0.5 0.5 0.5 0.5 0.5 0.5 0.5 0.5 0.5 0.5 0.5 0.5 0.5 0.5 0.5 0.5 0.5 0.5 0.5 0.5 0.5 0.5 0.5 0.5 0.5 0.5 0.307768 0.692232 0.412371 0.587629 0.361153 0.6388469999999999 0.744381 0.25561900000000004 0.147573 0.852427 0.717728 0.28227199999999997 0.404538 0.5954619999999999 0.815977 0.18402300000000005 0.5 0.5 0.5 0.5 0.5 0.5 0.5 0.5 0.964564 0.03543600000000002 0.708908 0.291092 0.526653 0.47334699999999996 0.743927 0.256073 0.109651 0.8903490000000001 0.184494 0.8155060000000001 0.5 0.5 0.5 0.5 0.5 0.5 0.5 0.5 0.5 0.5 0.5 0.5 0.5 0.5 0.5 0.5 0.5 0.5 0.5 0.5 0.5 0.5 0.5 0.5 0.5 0.5 0.5 0.5 0.5 0.5 0.5 0.5 0.5 0.5 0.5 0.5 0.5 0.5 0.5 0.5 0.60792 0.39208 0.708142 0.29185799999999995 0.119097 0.880903 0.788741 0.21125899999999997 0.5 0.5 0.5 0.5 0.5 0.5 0.5 0.5 0.5 0.5 0.5 0.5 0.5 0.5 0.5 0.5 0.5 0.5 0.5 0.5 0.5 0.5 0.5 0.5 0.5 0.5 0.5 0.5 0.5 0.5 0.5 0.5 0.5 0.5 0.5 0.5 0.5 0.5 0.5 0.5 0.5 0.5 0.5 0.5 0.325969 0.674031 0.446056 0.553944 0.178347 0.821653 0.141209 0.858791 0.528972 0.471028 0.25557 0.7444299999999999 0.455778 0.544222 0.176583 0.8234170000000001 0.5 0.5 0.5 0.5 0.5 0.5 0.5 0.5 0.5 0.5 0.5 0.5 0.5 0.5 0.5 0.5 0.5 0.5 0.5 0.5 0.5 0.5 0.5 0.5 0.559255 0.44074500000000005 0.789642 0.21035800000000004 0.0595313 0.9404687 0.766127 0.233873 0.5 0.5 0.5 0.5 0.5 0.5 0.5 0.5 0.5 0.5 0.5 0.5 0.5 0.5 0.5 0.5 0.0596654 0.9403346 0.865969 0.134031 0.442197 0.557803 0.507691 0.492309 0.5 0.5 0.5 0.5 0.5 0.5 0.5 0.5 0.5 0.5 0.5 0.5 0.5 0.5 0.5 0.5 0.5 0.5 0.5 0.5 0.5 0.5 0.5 0.5 0.5 0.5 0.5 0.5 0.5 0.5 0.5 0.5 0.5 0.5 0.5 0.5 0.5 0.5 0.5 0.5 0.5 0.5 0.5 0.5 0.5 0.5 0.5 0.5 0.5 0.5 0.5 0.5 0.151519 0.848481 0.000751057 0.999248943 0.444677 0.555323 0.841284 0.15871599999999997 0.5 0.5 0.5 0.5 0.5 0.5 0.5 0.5 0.5 0.5 0.5 0.5 0.5 0.5 0.5 0.5 0.727074 0.272926 0.525728 0.474272 0.742809 0.25719099999999995 0.65055 0.34945000000000004 0.5 0.5 0.5 0.5 0.5 0.5 0.5 0.5 0.221399 0.778601 0.713705 0.28629499999999997 0.876648 0.12335200000000002 0.830382 0.16961800000000005 0.5 0.5 0.5 0.5 0.522897 0.47710300000000005 0.284589 0.715411 0.823184 0.17681599999999997 0.13863 0.86137 0.498118 0.5018819999999999 0.656333 0.34366699999999994 0.022965 0.977035 0.809163 0.19083700000000003 0.5 0.5 0.5 0.5 0.5 0.5 0.5 0.5 0.5 0.5 0.5 0.5 0.5 0.5 0.5 0.5 0.5 0.5 0.5 0.5 0.5 0.5 0.5 0.5 0.5 0.5 0.5 0.5 0.5 0.5 0.5 0.5 0.5 0.5 0.5 0.5 0.5 0.5 0.5 0.5 0.419527 0.580473 0.159472 0.8405279999999999 0.730005 0.269995 0.0547883 0.9452117 0.5 0.5 0.5 0.5 0.5 0.5 0.5 0.5 0.5 0.5 0.5 0.5 0.5 0.5 0.5 0.5 0.5 0.5 0.5 0.5 0.5 0.5 0.5 0.5
-1 -145 2 0
-1 145 -2 0
1 -146 2 0
1 146 -2 0
-2 -147 3 0
-2 147 -3 0
2 -148 3 0
2 148 -3 0
-3 4 0
3 -4 0
-4 5 0
4 -5 0
-5 -6 0
5 6 0
-6 -7 0
6 7 0
-7 -8 0
7 8 0
-8 9 0
8 -9 0
-9 10 0
9 -10 0
-10 -11 0
10 11 0
-11 -12 0
11 12 0
-1 13 0
1 -13 0
-13 -2 14 0
-13 2 -14 0
13 -2 -14 0
13 2 -14 0
-14 -3 -15 0
-14 3 15 0
14 -3 15 0
14 3 15 0
-15 -4 16 0
-15 4 -16 0
15 -4 -16 0
15 4 -16 0
-16 -5 -181 17 0
-16 -5 181 -17 0
-16 5 -182 17 0
-16 5 182 -17 0
16 -5 -183 17 0
16 -5 183 -17 0
16 5 -184 17 0
16 5 184 -17 0
-17 -6 -185 18 0
-17 -6 185 -18 0
-17 6 -186 18 0
-17 6 186 -18 0
17 -6 -187 18 0
17 -6 187 -18 0
17 6 -188 18 0
17 6 188 -18 0
-18 -7 19 0
-18 7 -19 0
18 -7 -19 0
18 7 -19 0
-19 -8 20 0
-19 8 -20 0
19 -8 20 0
19 8 20 0
-20 -9 21 0
-20 9 21 0
20 -9 -21 0
20 9 -21 0
-21 -10 -22 0
-21 10 22 0
21 -10 22 0
21 10 -22 0
-22 -11 -23 0
-22 11 -23 0
22 -11 -23 0
22 11 23 0
-23 -12 -24 0
-23 12 24 0
23 -12 -24 0
23 12 24 0
-13 -25 0
13 25 0
-25 -14 26 0
-25 14 -26 0
25 -14 26 0
25 14 -26 0
-26 -15 27 0
-26 15 27 0
26 -15 -27 0
26 15 -27 0
-27 -16 -223 28 0
-27 -16 223 -28 0
-27 16 -224 28 0
-27 16 224 -28 0
27 -16 -225 28 0
27 -16 225 -28 0
27 16 -226 28 0
27 16 226 -28 0
-28 -17 -29 0
-28 17 -29 0
28 -17 29 0
28 17 -29 0
-29 -18 30 0
-29 18 -30 0
29 -18 -30 0
29 18 30 0
-30 -19 -31 0
-30 19 -31 0
30 -19 31 0
30 19 31 0
-31 -20 -32 0
-31 20 -32 0
31 -20 32 0
31 20 -32 0
-32 -21 -243 33 0
-32 -21 243 -33 0
-32 21 -244 33 0
-32 21 244 -33 0
32 -21 -245 33 0
32 -21 245 -33 0
32 21 -246 33 0
32 21 246 -33 0
-33 -22 -34 0
-33 22 34 0
33 -22 34 0
33 22 -34 0
-34 -23 -35 0
-34 23 -35 0
34 -23 -35 0
34 23 35 0
-35 -24 -255 36 0
-35 -24 255 -36 0
-35 24 -256 36 0
-35 24 256 -36 0
35 -24 -257 36 0
35 -24 257 -36 0
35 24 -258 36 0
35 24 258 -36 0
-25 -37 0
25 37 0
-37 -26 -38 0
-37 26 -38 0
37 -26 38 0
37 26 -38 0
-38 -27 39 0
-38 27 39 0
38 -27 -39 0
38 27 39 0
-39 -28 -40 0
-39 28 -40 0
39 -28 40 0
39 28 40 0
-40 -29 -273 41 0
-40 -29 273 -41 0
-40 29 -274 41 0
-40 29 274 -41 0
40 -29 -275 41 0
40 -29 275 -41 0
40 29 -276 41 0
40 29 276 -41 0
-41 -30 42 0
-41 30 -42 0
41 -30 -42 0
41 30 -42 0
-42 -31 -281 43 0
-42 -31 281 -43 0
-42 31 -282 43 0
-42 31 282 -43 0
42 -31 -283 43 0
42 -31 283 -43 0
42 31 -284 43 0
42 31 284 -43 0
-43 -32 -44 0
-43 32 -44 0
43 -32 44 0
43 32 44 0
-44 -33 -289 45 0
-44 -33 289 -45 0
-44 33 -290 45 0
-44 33 290 -45 0
44 -33 -291 45 0
44 -33 291 -45 0
44 33 -292 45 0
44 33 292 -45 0
-45 -34 -293 46 0
-45 -34 293 -46 0
-45 34 -294 46 0
-45 34 294 -46 0
45 -34 -295 46 0
45 -34 295 -46 0
45 34 -296 46 0
45 34 296 -46 0
-46 -35 -47 0
-46 35 47 0
46 -35 -47 0
46 35 47 0
-47 -36 48 0
-47 36 -48 0
47 -36 -48 0
47 36 48 0
-37 -49 0
37 49 0
-49 -38 -307 50 0
-49 -38 307 -50 0
-49 38 -308 50 0
-49 38 308 -50 0
49 -38 -309 50 0
49 -38 309 -50 0
49 38 -310 50 0
49 38 310 -50 0
-50 -39 51 0
-50 39 51 0
50 -39 51 0
50 39 -51 0
-51 -40 -315 52 0
-51 -40 315 -52 0
-51 40 -316 52 0
-51 40 316 -52 0
51 -40 -317 52 0
51 -40 317 -52 0
51 40 -318 52 0
51 40 318 -52 0
-52 -41 -53 0
-52 41 53 0
52 -41 -53 0
52 41 -53 0
-53 -42 -323 54 0
-53 -42 323 -54 0
-53 42 -324 54 0
-53 42 324 -54 0
53 -42 -325 54 0
53 -42 325 -54 0
53 42 -326 54 0
53 42 326 -54 0
-54 -43 55 0
-54 43 -55 0
54 -43 55 0
54 43 55 0
-55 -44 -56 0
-55 44 56 0
55 -44 -56 0
55 44 -56 0
-56 -45 57 0
-56 45 57 0
56 -45 -57 0
56 45 57 0
-57 -46 -339 58 0
-57 -46 339 -58 0
-57 46 -340 58 0
-57 46 340 -58 0
57 -46 -341 58 0
57 -46 341 -58 0
57 46 -342 58 0
57 46 342 -58 0
-58 -47 59 0
-58 47 59 0
58 -47 -59 0
58 47 59 0
-59 -48 60 0
-59 48 60 0
59 -48 -60 0
59 48 60 0
-49 -61 0
49 61 0
-61 -50 62 0
-61 50 62 0
61 -50 -62 0
61 50 -62 0
-62 -51 -357 63 0
-62 -51 357 -63 0
-62 51 -358 63 0
-62 51 358 -63 0
62 -51 -359 63 0
62 -51 359 -63 0
62 51 -360 63 0
62 51 360 -63 0
-63 -52 64 0
-63 52 -64 0
63 -52 -64 0
63 52 -64 0
-64 -53 -365 65 0
-64 -53 365 -65 0
-64 53 -366 65 0
-64 53 366 -65 0
64 -53 -367 65 0
64 -53 367 -65 0
64 53 -368 65 0
64 53 368 -65 0
-65 -54 -369 66 0
-65 -54 369 -66 0
-65 54 -370 66 0
-65 54 370 -66 0
65 -54 -371 66 0
65 -54 371 -66 0
65 54 -372 66 0
65 54 372 -66 0
-66 -55 -67 0
-66 55 67 0
66 -55 67 0
66 55 -67 0
-67 -56 -68 0
-67 56 -68 0
67 -56 -68 0
67 56 68 0
-68 -57 -381 69 0
-68 -57 381 -69 0
-68 57 -382 69 0
-68 57 382 -69 0
68 -57 -383 69 0
68 -57 383 -69 0
68 57 -384 69 0
68 57 384 -69 0
-69 -58 -70 0
-69 58 70 0
69 -58 70 0
69 58 -70 0
-70 -59 71 0
-70 59 71 0
70 -59 71 0
70 59 -71 0
-71 -60 -393 72 0
-71 -60 393 -72 0
-71 60 -394 72 0
-71 60 394 -72 0
71 -60 -395 72 0
71 -60 395 -72 0
71 60 -396 72 0
71 60 396 -72 0
-61 -397 73 0
-61 397 -73 0
61 -398 73 0
61 398 -73 0
-73 -62 -74 0
-73 62 74 0
73 -62 -74 0
73 62 74 0
-74 -63 -403 75 0
-74 -63 403 -75 0
-74 63 -404 75 0
-74 63 404 -75 0
74 -63 -405 75 0
74 -63 405 -75 0
74 63 -406 75 0
74 63 406 -75 0
-75 -64 76 0
-75 64 -76 0
75 -64 -76 0
75 64 -76 0
-76 -65 -77 0
-76 65 -77 0
76 -65 -77 0
76 65 77 0
-77 -66 -78 0
-77 66 78 0
77 -66 -78 0
77 66 -78 0
-78 -67 79 0
-78 67 -79 0
78 -67 79 0
78 67 -79 0
-79 -68 -423 80 0
-79 -68 423 -80 0
-79 68 -424 80 0
-79 68 424 -80 0
79 -68 -425 80 0
79 -68 425 -80 0
79 68 -426 80 0
79 68 426 -80 0
-80 -69 81 0
-80 69 -81 0
80 -69 81 0
80 69 -81 0
-81 -70 -431 82 0
-81 -70 431 -82 0
-81 70 -432 82 0
-81 70 432 -82 0
81 -70 -433 82 0
81 -70 433 -82 0
81 70 -434 82 0
81 70 434 -82 0
-82 -71 -435 83 0
-82 -71 435 -83 0
-82 71 -436 83 0
-82 71 436 -83 0
82 -71 -437 83 0
82 -71 437 -83 0
82 71 -438 83 0
82 71 438 -83 0
-83 -72 84 0
-83 72 -84 0
83 -72 -84 0
83 72 84 0
-73 85 0
73 -85 0
-85 -74 86 0
-85 74 -86 0
85 -74 -86 0
85 74 -86 0
-86 -75 -449 87 0
-86 -75 449 -87 0
-86 75 -450 87 0
-86 75 450 -87 0
86 -75 -451 87 0
86 -75 451 -87 0
86 75 -452 87 0
86 75 452 -87 0
-87 -76 88 0
-87 76 -88 0
87 -76 88 0
87 76 88 0
-88 -77 -89 0
-88 77 89 0
88 -77 -89 0
88 77 -89 0
-89 -78 -90 0
-89 78 90 0
89 -78 90 0
89 78 90 0
-90 -79 91 0
-90 79 91 0
90 -79 -91 0
90 79 91 0
-91 -80 92 0
-91 80 92 0
91 -80 -92 0
91 80 92 0
-92 -81 93 0
-92 81 93 0
92 -81 -93 0
92 81 93 0
-93 -82 -477 94 0
-93 -82 477 -94 0
-93 82 -478 94 0
-93 82 478 -94 0
93 -82 -479 94 0
93 -82 479 -94 0
93 82 -480 94 0
93 82 480 -94 0
-94 -83 -481 95 0
-94 -83 481 -95 0
-94 83 -482 95 0
-94 83 482 -95 0
94 -83 -483 95 0
94 -83 483 -95 0
94 83 -484 95 0
94 83 484 -95 0
-95 -84 96 0
-95 84 96 0
95 -84 -96 0
95 84 -96 0
-85 -489 97 0
-85 489 -97 0
85 -490 97 0
85 490 -97 0
-97 -86 -491 98 0
-97 -86 491 -98 0
-97 86 -492 98 0
-97 86 492 -98 0
97 -86 -493 98 0
97 -86 493 -98 0
97 86 -494 98 0
97 86 494 -98 0
-98 -87 99 0
-98 87 99 0
98 -87 -99 0
98 87 -99 0
-99 -88 -100 0
-99 88 100 0
99 -88 -100 0
99 88 -100 0
-100 -89 101 0
-100 89 -101 0
100 -89 101 0
100 89 -101 0
-101 -90 -102 0
-101 90 -102 0
101 -90 102 0
101 90 -102 0
-102 -91 103 0
-102 91 -103 0
102 -91 103 0
102 91 103 0
-103 -92 -515 104 0
-103 -92 515 -104 0
-103 92 -516 104 0
-103 92 516 -104 0
103 -92 -517 104 0
103 -92 517 -104 0
103 92 -518 104 0
103 92 518 -104 0
-104 -93 105 0
-104 93 -105 0
104 -93 -105 0
104 93 -105 0
-105 -94 -106 0
-105 94 -106 0
105 -94 106 0
105 94 -106 0
-106 -95 -107 0
-106 95 107 0
106 -95 107 0
106 95 107 0
-107 -96 -108 0
-107 96 108 0
107 -96 108 0
107 96 -108 0
-97 -109 0
97 109 0
-109 -98 -110 0
-109 98 110 0
109 -98 -110 0
109 98 -110 0
-110 -99 -541 111 0
-110 -99 541 -111 0
-110 99 -542 111 0
-110 99 542 -111 0
110 -99 -543 111 0
110 -99 543 -111 0
110 99 -544 111 0
110 99 544 -111 0
-111 -100 -545 112 0
-111 -100 545 -112 0
-111 100 -546 112 0
-111 100 546 -112 0
111 -100 -547 112 0
111 -100 547 -112 0
111 100 -548 112 0
111 100 548 -112 0
-112 -101 113 0
-112 101 113 0
112 -101 -113 0
112 101 113 0
-113 -102 114 0
-113 102 -114 0
113 -102 -114 0
113 102 -114 0
-114 -103 115 0
-114 103 -115 0
114 -103 115 0
114 103 -115 0
-115 -104 -561 116 0
-115 -104 561 -116 0
-115 104 -562 116 0
-115 104 562 -116 0
115 -104 -563 116 0
115 -104 563 -116 0
115 104 -564 116 0
115 104 564 -116 0
-116 -105 -117 0
-116 105 117 0
116 -105 117 0
116 105 -117 0
-117 -106 -118 0
-117 106 -118 0
117 -106 -118 0
117 106 118 0
-118 -107 -573 119 0
-118 -107 573 -119 0
-118 107 -574 119 0
-118 107 574 -119 0
118 -107 -575 119 0
118 -107 575 -119 0
118 107 -576 119 0
118 107 576 -119 0
-119 -108 120 0
-119 108 120 0
119 -108 -120 0
119 108 120 0
-109 -121 0
109 121 0
-121 -110 -122 0
-121 110 122 0
121 -110 -122 0
121 110 -122 0
-122 -111 123 0
-122 111 -123 0
122 -111 -123 0
122 111 -123 0
-123 -112 -124 0
-123 112 124 0
123 -112 -124 0
123 112 124 0
-124 -113 125 0
-124 113 125 0
124 -113 -125 0
124 113 -125 0
-125 -114 126 0
-125 114 126 0
125 -114 -126 0
125 114 -126 0
-126 -115 -603 127 0
-126 -115 603 -127 0
-126 115 -604 127 0
-126 115 604 -127 0
126 -115 -605 127 0
126 -115 605 -127 0
126 115 -606 127 0
126 115 606 -127 0
-127 -116 -128 0
-127 116 -128 0
127 -116 -128 0
127 116 128 0
-128 -117 129 0
-128 117 -129 0
128 -117 129 0
128 117 -129 0
-129 -118 -615 130 0
-129 -118 615 -130 0
-129 118 -616 130 0
-129 118 616 -130 0
129 -118 -617 130 0
129 -118 617 -130 0
129 118 -618 130 0
129 118 618 -130 0
-130 -119 131 0
-130 119 131 0
130 -119 -131 0
130 119 131 0
-131 -120 -623 132 0
-131 -120 623 -132 0
-131 120 -624 132 0
-131 120 624 -132 0
131 -120 -625 132 0
131 -120 625 -132 0
131 120 -626 132 0
131 120 626 -132 0
-121 133 0
121 -133 0
-133 -122 -629 134 0
-133 -122 629 -134 0
-133 122 -630 134 0
-133 122 630 -134 0
133 -122 -631 134 0
133 -122 631 -134 0
133 122 -632 134 0
133 122 632 -134 0
-134 -123 -633 135 0
-134 -123 633 -135 0
-134 123 -634 135 0
-134 123 634 -135 0
134 -123 -635 135 0
134 -123 635 -135 0
134 123 -636 135 0
134 123 636 -135 0
-135 -124 136 0
-135 124 -136 0
135 -124 -136 0
135 124 -136 0
-136 -125 -137 0
-136 125 -137 0
136 -125 137 0
136 125 137 0
-137 -126 -138 0
-137 126 -138 0
137 -126 -138 0
137 126 138 0
-138 -127 139 0
-138 127 -139 0
138 -127 -139 0
138 127 -139 0
-139 -128 140 0
-139 128 140 0
139 -128 -140 0
139 128 -140 0
-140 -129 -657 141 0
-140 -129 657 -141 0
-140 129 -658 141 0
-140 129 658 -141 0
140 -129 -659 141 0
140 -129 659 -141 0
140 129 -660 141 0
140 129 660 -141 0
-141 -130 142 0
-141 130 -142 0
141 -130 -142 0
141 130 -142 0
-142 -131 -143 0
-142 131 -143 0
142 -131 143 0
142 131 143 0
-143 -132 144 0
-143 132 -144 0
143 -132 -144 0
143 132 -144 0
144 0
