data/benchmarks/bayes/75-12-3-q.gr
p tw 672 845
55 66
67 68
122 632
99 100
88 100
72 393
70 82
8 9
40 41
29 41
92 515
100 101
65 372
118 616
11 23
130 618
121 133
41 42
40 315
110 541
73 74
62 74
93 479
133 134
44 56
86 449
16 223
14 15
3 15
17 188
70 432
140 658
52 316
129 658
74 75
106 107
95 107
62 357
122 133
45 295
28 224
15 16
6 187
34 295
47 48
36 48
54 371
60 396
82 433
75 403
107 108
96 108
18 30
128 140
126 606
21 32
80 81
69 81
65 367
140 141
113 124
129 141
10 22
68 381
57 381
41 275
81 82
54 65
102 114
103 515
44 289
33 289
5 181
17 183
22 23
141 659
43 55
79 423
63 406
51 315
87 98
114 115
103 115
116 561
115 605
133 632
82 437
55 56
28 39
71 437
27 223
76 88
2 148
88 99
122 631
29 40
77 89
118 615
65 371
130 617
2 13
58 341
62 73
110 122
115 564
104 564
140 657
70 431
3 14
17 187
54 325
35 46
51 63
71 396
129 657
95 106
6 186
60 395
36 47
64 365
53 365
128 139
21 22
72 396
126 605
40 273
29 273
69 80
65 366
113 114
119 575
129 616
16 181
112 545
10 21
54 55
41 274
95 483
102 113
17 182
43 54
87 88
133 631
63 405
28 29
17 29
81 431
76 87
88 89
109 121
2 147
122 630
29 30
57 339
46 339
61 62
50 62
50 309
121 122
2 3
58 340
42 323
62 63
94 95
83 95
132 625
110 121
115 563
104 563
3 4
35 36
24 36
5 184
54 324
71 395
95 96
84 96
127 128
116 128
51 318
9 20
60 394
68 69
57 69
27 226
118 573
107 573
128 129
117 129
74 405
126 604
69 70
42 53
58 70
94 481
83 481
101 102
90 102
119 574
87 451
10 11
129 615
31 43
95 482
102 103
75 86
63 359
91 103
123 135
43 44
16 27
43 282
32 44
64 76
135 136
108 119
124 136
5 17
17 28
98 492
76 77
65 77
97 109
2 146
64 368
53 368
6 18
21 245
111 547
100 547
50 61
98 110
82 93
40 276
29 276
120 623
50 308
104 517
33 246
39 51
23 34
16 184
112 548
83 94
132 624
115 126
131 143
24 35
72 84
56 67
80 424
116 127
36 256
9 10
57 68
82 479
89 100
135 634
81 434
1 145
74 404
30 41
42 43
111 542
94 480
90 101
134 135
87 450
31 42
75 76
42 326
63 358
123 134
16 17
18 188
43 281
64 75
97 490
5 16
73 398
49 50
38 50
98 491
109 110
130 142
118 576
107 576
21 244
50 51
82 83
71 83
111 546
100 546
94 484
142 143
50 307
104 516
23 24
12 24
83 84
31 284
115 116
104 116
134 633
56 57
45 57
97 494
80 423
86 494
116 117
105 117
53 326
36 255
57 58
46 58
46 296
89 90
78 90
82 478
135 633
66 372
49 310
38 310
30 31
19 31
111 541
90 91
63 74
79 91
111 123
120 626
87 449
31 32
4 15
20 32
52 64
141 142
32 244
69 382
123 124
112 124
68 426
63 357
35 258
18 187
24 258
45 290
64 65
53 65
85 97
97 489
123 636
5 6
26 38
73 397
51 360
127 606
38 49
97 98
70 81
86 98
83 438
99 544
118 130
130 141
27 39
11 22
75 452
71 82
42 284
119 131
104 515
93 478
12 23
60 72
44 55
31 283
104 115
134 632
52 315
1 13
122 123
131 626
45 56
45 294
28 223
34 294
82 432
93 105
141 658
54 370
96 107
18 29
46 295
78 89
126 138
66 371
92 518
19 30
129 140
63 64
111 122
110 544
40 318
4 5
25 37
52 63
32 243
16 226
69 381
86 452
68 425
134 636
103 114
37 38
35 257
115 604
62 360
45 289
82 436
71 436
75 406
26 37
127 605
51 359
70 71
59 71
83 437
118 129
130 131
77 88
11 12
3 148
130 616
65 370
92 104
68 384
57 384
93 477
44 45
33 45
103 518
44 292
33 292
17 186
125 137
51 62
134 631
79 426
116 564
66 78
45 293
34 293
6 185
82 431
137 138
141 657
54 369
18 19
7 19
99 111
72 395
129 130
65 365
40 52
118 618
111 112
100 112
132 144
41 273
115 606
110 543
40 317
73 85
17 181
86 451
16 225
70 434
140 660
103 104
129 660
14 26
133 630
63 404
85 86
62 359
115 603
106 118
82 435
71 435
136 137
122 629
47 59
75 405
59 70
118 119
107 119
77 78
3 147
130 615
65 369
80 92
92 103
58 339
68 383
57 383
110 111
33 44
115 562
81 93
104 562
51 52
44 291
33 291
5 183
17 185
54 323
71 394
103 517
84 95
125 136
143 144
79 425
116 563
51 317
66 77
114 126
60 393
27 225
117 128
55 67
99 110
72 394
58 69
46 342
57 342
126 603
119 573
40 51
118 617
132 143
95 481
91 102
25 26
32 43
140 659
70 433
129 659
14 25
114 125
133 629
63 403
124 135
17 18
106 117
65 76
2 145
47 58
64 367
53 367
75 404
6 17
98 109
40 275
21 33
29 275
83 484
65 368
80 91
33 245
113 125
39 50
129 618
16 183
112 547
41 276
132 623
131 142
54 66
115 561
13 25
104 561
5 182
17 184
71 393
72 83
87 99
51 316
116 562
117 118
28 40
27 224
81 433
120 132
58 59
74 403
57 341
46 341
94 479
61 73
91 92
2 14
42 325
58 342
94 106
32 33
124 125
54 326
35 47
127 139
65 66
68 80
6 7
64 366
53 366
118 575
21 243
107 575
139 140
98 99
111 545
100 545
40 274
29 274
94 483
83 483
101 113
39 40
119 576
33 244
129 617
16 182
112 546
131 132
95 484
71 438
43 284
97 493
86 493
105 116
53 325
46 57
98 494
82 477
81 432
49 309
38 309
120 131
79 90
57 340
46 340
94 478
120 625
50 310
20 31
112 123
42 324
132 626
94 105
24 257
18 186
53 64
80 426
123 635
38 39
36 258
127 138
86 97
99 543
9 21
135 636
68 79
118 574
27 38
107 574
75 451
71 72
74 406
111 544
42 283
119 130
42 54
94 482
83 482
101 112
33 243
60 71
87 452
104 105
31 282
75 87
13 14
63 360
45 46
34 46
131 625
93 104
105 106
16 28
43 283
97 492
86 492
53 324
108 120
46 47
78 79
67 79
46 294
126 137
98 493
138 139
49 61
66 370
19 20
8 20
49 308
38 308
92 517
79 80
21 246
111 548
94 477
100 548
82 94
20 21
120 624
52 53
41 53
104 518
112 113
23 35
68 424
134 635
52 318
115 127
53 54
35 256
18 185
24 256
74 86
28 226
56 68
80 425
123 634
26 27
15 27
36 257
86 87
51 358
127 604
99 542
83 436
82 480
89 101
27 28
135 635
48 60
75 450
119 120
1 146
30 42
111 543
42 282
31 281
32 246
1 2
69 384
85 490
22 34
134 630
34 45
93 94
131 624
61 398
45 292
97 491
86 491
7 18
53 323
67 78
126 127
46 293
66 369
8 19
49 307
38 307
92 516
100 111
110 542
40 316
41 52
93 480
86 450
16 224
68 423
134 634
52 317
35 255
24 255
62 358
74 85
122 134
45 296
28 225
6 188
34 296
82 434
123 633
141 660
15 26
54 372
59 60
127 603
51 357
107 118
99 541
83 435
48 59
92 93
75 449
42 281
63 75
68 382
57 382
33 34
81 92
4 16
103 516
44 290
33 290
125 126
85 489
32 245
69 383
134 629
22 33
34 35
66 67
79 424
131 623
61 397
45 291
37 49
7 8
82 438
